; benchmark generated from python API
(set-info :status unknown)
(declare-fun x_month () Int)
(declare-fun x_day () Int)
(declare-fun x_year () Int)
(declare-fun y_month () Int)
(declare-fun y_day () Int)
(declare-fun y_year () Int)
(assert
 (>= x_month 1))
(assert
 (<= x_month 12))
(assert
 (>= x_day 1))
(assert
 (<= x_day 31))
(assert
 (let (($x317 (<= x_day 28)))
 (let (($x711 (<= x_day 29)))
 (let (($x720 (= (mod x_year 400) 0)))
 (let (($x751 (= (mod x_year 4) 0)))
 (let (($x636 (ite (or (and $x751 (and (distinct (mod x_year 100) 0) true)) $x720) $x711 $x317)))
 (let (($x470 (= x_month 2)))
 (ite $x470 $x636 true))))))))
(assert
 (let (($x463 (<= x_day 30)))
 (let (($x760 (= x_month 6)))
 (let (($x735 (or (= x_month 4) $x760 (= x_month 9) (= x_month 11))))
 (ite $x735 $x463 true)))))
(assert
 (>= y_month 1))
(assert
 (<= y_month 12))
(assert
 (>= y_day 1))
(assert
 (<= y_day 31))
(assert
 (let (($x310 (<= y_day 28)))
 (let (($x739 (<= y_day 29)))
 (let (($x383 (= (mod y_year 400) 0)))
 (let (($x388 (= (mod y_year 4) 0)))
 (let (($x446 (ite (or (and $x388 (and (distinct (mod y_year 100) 0) true)) $x383) $x739 $x310)))
 (let (($x181 (= y_month 2)))
 (ite $x181 $x446 true))))))))
(assert
 (let (($x727 (<= y_day 30)))
 (let (($x706 (= y_month 6)))
 (let (($x179 (or (= y_month 4) $x706 (= y_month 9) (= y_month 11))))
 (ite $x179 $x727 true)))))
(assert
 (let (($x441 (= x_year 2023)))
 (let (($x577 (and $x441 (or (> x_month 6) (and (= x_month 6) (>= x_day 1))))))
 (or (> x_year 2023) $x577))))
(assert
 (let (($x29 (or (and (= (mod 2000 4) 0) (and (distinct (mod 2000 100) 0) true)) (= (mod 2000 400) 0))))
 (let ((?x36 (ite (= 3 2) (ite $x29 31 31) (ite (= 3 1) (ite $x29 0 0) 0))))
 (let ((?x40 (ite $x29 60 59)))
 (let ((?x41 (ite (= 3 3) ?x40 ?x36)))
 (let ((?x46 (ite (= 3 4) (ite $x29 91 90) ?x41)))
 (let ((?x52 (ite (= 3 5) (ite $x29 121 120) ?x46)))
 (let ((?x58 (ite (= 3 6) (ite $x29 152 151) ?x52)))
 (let ((?x64 (ite (= 3 7) (ite $x29 182 181) ?x58)))
 (let ((?x70 (ite (= 3 8) (ite $x29 213 212) ?x64)))
 (let ((?x76 (ite (= 3 9) (ite $x29 244 243) ?x70)))
 (let ((?x82 (ite (= 3 10) (ite $x29 274 273) ?x76)))
 (let ((?x88 (ite (= 3 11) (ite $x29 305 304) ?x82)))
 (let ((?x16 (- (+ (* 365 (- 2000 1)) (div (- 2000 1) 4)) (div (- 2000 1) 100))))
 (let ((?x95 (+ (+ ?x16 (div (- 2000 1) 400)) (ite (= 3 12) (ite $x29 335 334) ?x88))))
 (let ((?x97 (+ ?x95 (- 1 1))))
 (let ((?x148 (+ (mod (- (+ x_month (+ (* 0 12) 1)) 1) 12) 1)))
 (let ((?x284 (ite (or (= ?x148 4) (= ?x148 6) (= ?x148 9) (= ?x148 11)) 30 31)))
 (let ((?x122 (+ 0 (div (- (+ x_month (+ (* 0 12) 1)) 1) 12))))
 (let ((?x304 (+ x_year ?x122)))
 (let (($x589 (or (and (= (mod ?x304 4) 0) (and (distinct (mod ?x304 100) 0) true)) (= (mod ?x304 400) 0))))
 (let ((?x345 (ite (= ?x148 2) (ite $x589 29 28) ?x284)))
 (let ((?x630 (ite (< x_day 1) 1 (ite (> x_day ?x345) ?x345 x_day))))
 (let ((?x458 (ite (< ?x630 1) 1 (ite (> ?x630 ?x345) ?x345 ?x630))))
 (let ((?x278 (ite (= 2 ?x148) (ite $x589 31 31) (ite (= 1 ?x148) (ite $x589 0 0) 0))))
 (let ((?x303 (ite (= 4 ?x148) (ite $x589 91 90) (ite (= 3 ?x148) (ite $x589 60 59) ?x278))))
 (let ((?x477 (ite (= 6 ?x148) (ite $x589 152 151) (ite (= 5 ?x148) (ite $x589 121 120) ?x303))))
 (let ((?x297 (ite (= 8 ?x148) (ite $x589 213 212) (ite (= 7 ?x148) (ite $x589 182 181) ?x477))))
 (let ((?x558 (ite (= 10 ?x148) (ite $x589 274 273) (ite (= 9 ?x148) (ite $x589 244 243) ?x297))))
 (let ((?x408 (ite (= 12 ?x148) (ite $x589 335 334) (ite (= 11 ?x148) (ite $x589 305 304) ?x558))))
 (let ((?x653 (- (+ (* 365 (- ?x304 1)) (div (- ?x304 1) 4)) (div (- ?x304 1) 100))))
 (let ((?x360 (- (+ (+ (+ ?x653 (div (- ?x304 1) 400)) ?x408) (- ?x458 1)) ?x97)))
 (let ((?x488 (+ (+ ?x360 0) ?x97)))
 (let ((?x454 (mod ?x488 146097)))
 (let ((?x465 (div ?x454 36524)))
 (let ((?x492 (ite (<= 4 ?x465) 3 ?x465)))
 (let ((?x1430 (- ?x454 (* ?x492 36524))))
 (let ((?x613 (mod ?x1430 1461)))
 (let ((?x455 (div ?x613 365)))
 (let ((?x838 (ite (<= 4 ?x455) 3 ?x455)))
 (let ((?x714 (+ (+ (* (div ?x488 146097) 400) (* ?x492 100)) (* (div ?x1430 1461) 4))))
 (let ((?x729 (+ (+ ?x714 ?x838) 1)))
 (let (($x572 (or (and (= (mod ?x729 4) 0) (and (distinct (mod ?x729 100) 0) true)) (= (mod ?x729 400) 0))))
 (let ((?x520 (- ?x613 (* ?x838 365))))
 (let ((?x575 (ite $x572 31 31)))
 (let (($x574 (>= ?x520 ?x575)))
 (let ((?x732 (ite $x574 (+ (- ?x520 ?x575) 1) (+ (- ?x520 (ite $x572 0 0)) 1))))
 (let ((?x2056 (ite $x572 60 59)))
 (let (($x563 (>= ?x520 ?x2056)))
 (let ((?x652 (ite $x572 91 90)))
 (let (($x156 (>= ?x520 ?x652)))
 (let ((?x681 (ite $x156 (+ (- ?x520 ?x652) 1) (ite $x563 (+ (- ?x520 ?x2056) 1) ?x732))))
 (let ((?x365 (ite $x572 121 120)))
 (let (($x762 (>= ?x520 ?x365)))
 (let ((?x201 (ite $x572 152 151)))
 (let (($x686 (>= ?x520 ?x201)))
 (let ((?x1671 (ite $x686 (+ (- ?x520 ?x201) 1) (ite $x762 (+ (- ?x520 ?x365) 1) ?x681))))
 (let ((?x168 (ite $x572 182 181)))
 (let (($x239 (>= ?x520 ?x168)))
 (let ((?x519 (ite $x572 213 212)))
 (let (($x374 (>= ?x520 ?x519)))
 (let ((?x2662 (ite $x374 (+ (- ?x520 ?x519) 1) (ite $x239 (+ (- ?x520 ?x168) 1) ?x1671))))
 (let ((?x663 (ite $x572 244 243)))
 (let (($x359 (>= ?x520 ?x663)))
 (let ((?x493 (ite $x572 274 273)))
 (let (($x478 (>= ?x520 ?x493)))
 (let ((?x752 (ite $x478 (+ (- ?x520 ?x493) 1) (ite $x359 (+ (- ?x520 ?x663) 1) ?x2662))))
 (let ((?x588 (ite $x572 305 304)))
 (let (($x505 (>= ?x520 ?x588)))
 (let ((?x217 (ite $x572 335 334)))
 (let (($x188 (>= ?x520 ?x217)))
 (let ((?x821 (ite $x188 (+ (- ?x520 ?x217) 1) (ite $x505 (+ (- ?x520 ?x588) 1) ?x752))))
 (let (($x614 (= 0 0)))
 (let ((?x2663 (ite $x614 ?x458 ?x821)))
 (let ((?x366 (ite $x762 5 (ite $x156 4 (ite $x563 3 (ite $x574 2 1))))))
 (let ((?x534 (ite $x359 9 (ite $x374 8 (ite $x239 7 (ite $x686 6 ?x366))))))
 (let ((?x603 (+ (ite $x614 ?x148 (ite $x188 12 (ite $x505 11 (ite $x478 10 ?x534)))) (+ (* 0 12) 0))))
 (let ((?x803 (- ?x603 1)))
 (let ((?x457 (+ (mod ?x803 12) 1)))
 (let ((?x689 (ite (or (= ?x457 4) (= ?x457 6) (= ?x457 9) (= ?x457 11)) 30 31)))
 (let (($x593 (= (mod (+ (ite $x614 ?x304 ?x729) (+ 0 (div ?x803 12))) 400) 0)))
 (let (($x542 (and (distinct (mod (+ (ite $x614 ?x304 ?x729) (+ 0 (div ?x803 12))) 100) 0) true)))
 (let (($x592 (= (mod (+ (ite $x614 ?x304 ?x729) (+ 0 (div ?x803 12))) 4) 0)))
 (let (($x581 (or (and $x592 $x542) $x593)))
 (let ((?x605 (ite (= ?x457 2) (ite $x581 29 28) ?x689)))
 (let ((?x316 (ite (< ?x2663 1) 1 (ite (> ?x2663 ?x605) ?x605 ?x2663))))
 (let ((?x341 (ite (< ?x316 1) 1 (ite (> ?x316 ?x605) ?x605 ?x316))))
 (let ((?x214 (ite (= 2 ?x457) (ite $x581 31 31) (ite (= 1 ?x457) (ite $x581 0 0) 0))))
 (let ((?x757 (ite (= 4 ?x457) (ite $x581 91 90) (ite (= 3 ?x457) (ite $x581 60 59) ?x214))))
 (let ((?x810 (ite (= 6 ?x457) (ite $x581 152 151) (ite (= 5 ?x457) (ite $x581 121 120) ?x757))))
 (let ((?x820 (ite (= 8 ?x457) (ite $x581 213 212) (ite (= 7 ?x457) (ite $x581 182 181) ?x810))))
 (let ((?x352 (ite (= 10 ?x457) (ite $x581 274 273) (ite (= 9 ?x457) (ite $x581 244 243) ?x820))))
 (let ((?x2250 (ite (= 12 ?x457) (ite $x581 335 334) (ite (= 11 ?x457) (ite $x581 305 304) ?x352))))
 (let ((?x813 (+ (ite $x614 ?x304 ?x729) (+ 0 (div ?x803 12)))))
 (let ((?x224 (- ?x813 1)))
 (let ((?x500 (+ (- (+ (* 365 ?x224) (div ?x224 4)) (div ?x224 100)) (div ?x224 400))))
 (let ((?x747 (+ (+ (- (+ (+ ?x500 ?x2250) (- ?x341 1)) ?x97) 15) ?x97)))
 (let ((?x802 (mod ?x747 146097)))
 (let ((?x779 (div ?x802 36524)))
 (let ((?x780 (ite (<= 4 ?x779) 3 ?x779)))
 (let ((?x428 (- ?x802 (* ?x780 36524))))
 (let ((?x753 (mod ?x428 1461)))
 (let ((?x466 (div ?x753 365)))
 (let ((?x237 (ite (<= 4 ?x466) 3 ?x466)))
 (let ((?x515 (+ (+ (* (div ?x747 146097) 400) (* ?x780 100)) (* (div ?x428 1461) 4))))
 (let ((?x604 (+ (+ ?x515 ?x237) 1)))
 (let (($x522 (or (and (= (mod ?x604 4) 0) (and (distinct (mod ?x604 100) 0) true)) (= (mod ?x604 400) 0))))
 (let ((?x842 (- ?x753 (* ?x237 365))))
 (let ((?x443 (ite $x522 31 31)))
 (let (($x2600 (>= ?x842 ?x443)))
 (let ((?x578 (ite $x2600 (+ (- ?x842 ?x443) 1) (+ (- ?x842 (ite $x522 0 0)) 1))))
 (let ((?x496 (ite $x522 60 59)))
 (let (($x124 (>= ?x842 ?x496)))
 (let ((?x516 (ite $x522 91 90)))
 (let (($x840 (>= ?x842 ?x516)))
 (let ((?x2743 (ite $x840 (+ (- ?x842 ?x516) 1) (ite $x124 (+ (- ?x842 ?x496) 1) ?x578))))
 (let ((?x528 (ite $x522 121 120)))
 (let (($x1511 (>= ?x842 ?x528)))
 (let ((?x728 (ite $x522 152 151)))
 (let (($x2065 (>= ?x842 ?x728)))
 (let ((?x1096 (ite $x2065 (+ (- ?x842 ?x728) 1) (ite $x1511 (+ (- ?x842 ?x528) 1) ?x2743))))
 (let ((?x253 (ite $x522 182 181)))
 (let (($x655 (>= ?x842 ?x253)))
 (let ((?x150 (ite $x522 213 212)))
 (let (($x288 (>= ?x842 ?x150)))
 (let ((?x2986 (ite $x288 (+ (- ?x842 ?x150) 1) (ite $x655 (+ (- ?x842 ?x253) 1) ?x1096))))
 (let ((?x716 (ite $x522 244 243)))
 (let (($x695 (>= ?x842 ?x716)))
 (let ((?x103 (ite $x522 274 273)))
 (let (($x1397 (>= ?x842 ?x103)))
 (let ((?x215 (ite $x1397 (+ (- ?x842 ?x103) 1) (ite $x695 (+ (- ?x842 ?x716) 1) ?x2986))))
 (let ((?x538 (ite $x522 305 304)))
 (let (($x1283 (>= ?x842 ?x538)))
 (let ((?x649 (ite $x522 335 334)))
 (let (($x350 (>= ?x842 ?x649)))
 (let ((?x2880 (ite $x350 (+ (- ?x842 ?x649) 1) (ite $x1283 (+ (- ?x842 ?x538) 1) ?x215))))
 (let (($x525 (= 0 15)))
 (let ((?x1350 (ite $x1511 5 (ite $x840 4 (ite $x124 3 (ite $x2600 2 1))))))
 (let ((?x3103 (ite $x695 9 (ite $x288 8 (ite $x655 7 (ite $x2065 6 ?x1350))))))
 (let ((?x3101 (ite $x350 12 (ite $x1283 11 (ite $x1397 10 ?x3103)))))
 (and (= (ite $x525 ?x813 ?x604) y_year) (= (ite $x525 ?x457 ?x3101) y_month) (= (ite $x525 ?x341 ?x2880) y_day))))))))))))))))))))))))))))))))))))))))))))))))))))))))))))))))))))))))))))))))))))))))))))))))))))))))))))))))))))))))))))))))))))))))))))))
(assert
 (let (($x1332 (= y_year 2023)))
(let (($x2675 (and $x1332 (or (> y_month 6) (and (= y_month 6) (>= y_day 1))))))
(or (> y_year 2023) $x2675))))
(check-sat)
